c colouring generated by benchmark framework
p edge 144 2596
v 1 0
v 2 5
v 3 9
v 4 1
v 5 15
v 6 2
v 7 14
v 8 10
v 9 13
v 10 8
v 11 17
v 12 16
v 13 10
v 14 15
v 15 3
v 16 6
v 17 0
v 18 7
v 19 13
v 20 4
v 21 5
v 22 2
v 23 12
v 24 11
v 25 1
v 26 0
v 27 7
v 28 8
v 29 2
v 30 9
v 31 5
v 32 11
v 33 3
v 34 17
v 35 16
v 36 14
v 37 17
v 38 10
v 39 11
v 40 9
v 41 4
v 42 3
v 43 12
v 44 14
v 45 8
v 46 15
v 47 0
v 48 7
v 49 9
v 50 1
v 51 15
v 52 16
v 53 14
v 54 13
v 55 7
v 56 2
v 57 4
v 58 12
v 59 8
v 60 6
v 61 12
v 62 13
v 63 0
v 64 11
v 65 3
v 66 1
v 67 9
v 68 8
v 69 7
v 70 6
v 71 10
v 72 2
v 73 8
v 74 7
v 75 12
v 76 4
v 77 9
v 78 15
v 79 10
v 80 6
v 81 16
v 82 5
v 83 3
v 84 1
v 85 3
v 86 6
v 87 10
v 88 15
v 89 7
v 90 17
v 91 2
v 92 13
v 93 1
v 94 14
v 95 4
v 96 9
v 97 7
v 98 9
v 99 5
v 100 14
v 101 6
v 102 8
v 103 4
v 104 12
v 105 11
v 106 10
v 107 15
v 108 3
v 109 15
v 110 8
v 111 6
v 112 3
v 113 5
v 114 14
v 115 16
v 116 7
v 117 17
v 118 4
v 119 2
v 120 12
v 121 4
v 122 11
v 123 14
v 124 10
v 125 17
v 126 0
v 127 8
v 128 9
v 129 12
v 130 7
v 131 6
v 132 15
v 133 13
v 134 12
v 135 1
v 136 2
v 137 8
v 138 10
v 139 6
v 140 5
v 141 14
v 142 3
v 143 9
v 144 17
